inputs/463.in
8
0 11 36 97 14 64 6 24 
11 0 93 73 100 15 74 68 
36 93 0 98 72 34 38 48 
97 73 98 0 49 91 71 50 
14 100 72 49 0 63 68 91 
64 15 34 91 63 0 87 81 
6 74 38 71 68 87 0 30 
24 68 48 50 91 81 30 0 
RRBBBRBR
