output/463.out
25 35 19 30 3 9 33 26 41 4 6 17 7 12 32 1 13 31 18 14 20 36 27 45 46 49 11 43 29 23 28 16 42 48 10 8 50 38 34 22 5 24 21 39 2 15 37 40 44 47 
